n_machines = 5;
n_resources = 8;
n_jobs = 47;
horizon = 22374;
LB = 4474;
n_jobs_per_resource = [8, 7, 5, 3, 2, 5, 9, 8];
duration = [516, 898, 215, 394, 177, 574, 348, 470, 819, 590, 261, 818, 42, 344, 101, 606, 355, 990, 576, 43, 514, 284, 871, 497, 823, 649, 242, 744, 786, 400, 80, 49, 105, 578, 979, 975, 16, 57, 486, 504, 431, 899, 456, 954, 279, 209, 370]